p cnf 150 459
c t mc
4 -2 0
4 3 0
2 -3 -4 0
5 1 0
5 4 0
-1 -4 -5 0
8 -6 0
8 7 0
6 -7 -8 0
-9 10 -11 0
9 -10 -11 0
-9 -10 11 0
9 10 11 0
13 11 0
13 -12 0
-11 12 -13 0
14 8 0
14 13 0
-8 -13 -14 0
15 5 0
15 -14 0
-5 14 -15 0
-18 16 0
-18 17 0
-16 -17 18 0
-19 -3 0
-19 12 0
3 -12 19 0
20 18 0
20 19 0
-18 -19 -20 0
-21 -9 0
-21 20 0
9 -20 21 0
23 6 0
23 22 0
-6 -22 -23 0
7 23 -24 0
-7 -23 -24 0
7 -23 24 0
-7 23 24 0
20 -24 -25 0
-20 24 -25 0
20 24 25 0
-20 -24 25 0
-28 -17 0
-28 27 0
17 -27 28 0
29 -12 0
29 26 0
12 -26 -29 0
-28 29 -30 0
28 -29 -30 0
-28 -29 30 0
28 29 30 0
31 -26 0
31 30 0
26 -30 -31 0
33 32 0
33 19 0
-32 -19 -33 0
34 -33 0
34 16 0
33 -16 -34 0
-35 -36 -37 0
35 36 -37 0
-35 36 37 0
35 -36 37 0
38 -26 0
38 37 0
26 -37 -38 0
34 -38 -39 0
-34 38 -39 0
34 38 39 0
-34 -38 39 0
-40 31 0
-40 39 0
-31 -39 40 0
-43 41 0
-43 42 0
-41 -42 43 0
40 43 -44 0
-40 -43 -44 0
40 -43 44 0
-40 43 44 0
45 25 0
45 -44 0
-25 44 -45 0
-46 21 0
-46 -45 0
-21 45 46 0
48 -7 0
48 -3 0
7 3 -48 0
49 17 0
49 48 0
-17 -48 -49 0
-47 -49 -50 0
47 49 -50 0
-47 49 50 0
47 -49 50 0
10 -51 -52 0
-10 51 -52 0
10 51 52 0
-10 -51 52 0
-55 -53 0
-55 54 0
53 -54 55 0
-57 55 0
-57 -56 0
-55 56 57 0
-57 -4 -58 0
57 4 -58 0
-57 4 58 0
57 -4 58 0
-60 -56 0
-60 -59 0
56 59 60 0
-53 60 -61 0
53 -60 -61 0
-53 -60 61 0
53 60 61 0
58 -61 -62 0
-58 61 -62 0
58 61 62 0
-58 -61 62 0
31 -36 -63 0
-31 36 -63 0
31 36 63 0
-31 -36 63 0
-62 63 -64 0
62 -63 -64 0
-62 -63 64 0
62 63 64 0
65 -52 0
65 -64 0
52 64 -65 0
-50 -65 -66 0
50 65 -66 0
-50 65 66 0
50 -65 66 0
-67 46 0
-67 -66 0
-46 66 67 0
-68 9 0
-68 -18 0
-9 18 68 0
-69 -48 0
-69 23 0
48 -23 69 0
-68 -69 -70 0
68 69 -70 0
-68 69 70 0
68 -69 70 0
-71 33 0
-71 23 0
-33 -23 71 0
-70 71 -72 0
70 -71 -72 0
-70 -71 72 0
70 71 72 0
75 -73 0
75 -74 0
73 74 -75 0
22 76 -77 0
-22 -76 -77 0
22 -76 77 0
-22 76 77 0
-78 75 0
-78 77 0
-75 -77 78 0
-80 -79 0
-80 33 0
79 -33 80 0
81 80 0
81 56 0
-80 -56 -81 0
82 -81 0
82 18 0
81 -18 -82 0
-83 -82 0
-83 31 0
82 -31 83 0
78 83 -84 0
-78 -83 -84 0
78 -83 84 0
-78 83 84 0
-7 -9 -85 0
7 9 -85 0
-7 9 85 0
7 -9 85 0
-86 85 0
-86 -28 0
-85 28 86 0
-12 42 -87 0
12 -42 -87 0
-12 -42 87 0
12 42 87 0
88 -41 0
88 -23 0
41 23 -88 0
89 -36 0
89 -88 0
36 88 -89 0
-87 89 -90 0
87 -89 -90 0
-87 -89 90 0
87 89 90 0
-86 90 -91 0
86 -90 -91 0
-86 -90 91 0
86 90 91 0
-84 -91 -92 0
84 91 -92 0
-84 91 92 0
84 -91 92 0
72 -92 -93 0
-72 92 -93 0
72 92 93 0
-72 -92 93 0
67 93 -94 0
-67 -93 -94 0
67 -93 94 0
-67 93 94 0
15 -94 -95 0
-15 94 -95 0
15 94 95 0
-15 -94 95 0
96 60 0
96 27 0
-60 -27 -96 0
23 -76 -97 0
-23 76 -97 0
23 76 97 0
-23 -76 97 0
-98 96 0
-98 -97 0
-96 97 98 0
-99 -59 0
-99 -79 0
59 79 99 0
-101 -99 0
-101 -100 0
99 100 101 0
-38 34 -102 0
38 -34 -102 0
-38 -34 102 0
38 34 102 0
-103 -23 0
-103 -1 0
23 1 103 0
104 88 0
104 103 0
-88 -103 -104 0
105 -104 0
105 -80 0
104 80 -105 0
10 105 -106 0
-10 -105 -106 0
10 -105 106 0
-10 105 106 0
107 102 0
107 -106 0
-102 106 -107 0
22 108 -109 0
-22 -108 -109 0
22 -108 109 0
-22 108 109 0
110 -109 0
110 -49 0
109 49 -110 0
107 110 -111 0
-107 -110 -111 0
107 -110 111 0
-107 110 111 0
112 -101 0
112 -111 0
101 111 -112 0
-98 -112 -113 0
98 112 -113 0
-98 112 113 0
98 -112 113 0
-16 87 -114 0
16 -87 -114 0
-16 -87 114 0
16 87 114 0
-73 -54 -115 0
73 54 -115 0
-73 54 115 0
73 -54 115 0
-116 115 0
-116 82 0
-115 -82 116 0
24 116 -117 0
-24 -116 -117 0
24 -116 117 0
-24 116 117 0
-118 9 0
-118 2 0
-9 -2 118 0
-119 117 0
-119 -118 0
-117 118 119 0
-120 29 0
-120 41 0
-29 -41 120 0
121 36 0
121 -120 0
-36 120 -121 0
-122 -23 0
-122 108 0
23 -108 122 0
121 122 -123 0
-121 -122 -123 0
121 -122 123 0
-121 122 123 0
-124 119 0
-124 -123 0
-119 123 124 0
114 -124 -125 0
-114 124 -125 0
114 124 125 0
-114 -124 125 0
113 -125 -126 0
-113 125 -126 0
113 125 126 0
-113 -125 126 0
128 -127 0
128 11 0
127 -11 -128 0
7 -58 -129 0
-7 58 -129 0
7 58 129 0
-7 -58 129 0
-130 56 0
-130 28 0
-56 -28 130 0
131 42 0
131 2 0
-42 -2 -131 0
132 130 0
132 131 0
-130 -131 -132 0
-133 129 0
-133 -132 0
-129 132 133 0
134 -128 0
134 133 0
128 -133 -134 0
3 135 -136 0
-3 -135 -136 0
3 -135 136 0
-3 135 136 0
-137 -134 0
-137 -136 0
134 136 137 0
138 126 0
138 -137 0
-126 137 -138 0
49 -2 -139 0
-49 2 -139 0
49 2 139 0
-49 -2 139 0
140 103 0
140 -54 0
-103 54 -140 0
141 139 0
141 -140 0
-139 140 -141 0
142 138 0
142 141 0
-138 -141 -142 0
144 143 0
144 109 0
-143 -109 -144 0
142 -144 -145 0
-142 144 -145 0
142 144 145 0
-142 -144 145 0
-73 35 -146 0
73 -35 -146 0
-73 -35 146 0
73 35 146 0
-147 11 0
-147 -34 0
-11 34 147 0
-148 -146 0
-148 147 0
146 -147 148 0
-149 145 0
-149 148 0
-145 -148 149 0
-150 95 0
-150 149 0
-95 -149 150 0
58 74 145 -5 -107 0
-59 -104 -97 0
-114 30 125 -150 -7 -94 0
80 138 113 16 0
-1 58 -90 -41 -140 -122 0
-34 8 117 14 -61 138 -37 -107 148 0
-46 -10 29 12 90 -98 30 -130 56 0
-109 -103 -41 86 -37 78 0
-16 148 -5 50 -108 92 0
88 -19 97 0
-25 46 -42 0
-49 -123 46 0
136 -43 145 -42 -78 32 -1 -24 -96 0
41 53 -104 -93 146 78 -120 106 0
-115 -126 -23 89 -134 -53 146 0
-46 29 49 0
-146 -148 91 88 -29 19 -95 110 -47 150 0
-122 -25 96 21 -20 95 6 0
-86 -20 -147 -82 143 -41 -25 -75 0
54 23 -104 16 83 94 0
64 -80 -39 -41 113 -23 100 131 0
119 -77 13 0
63 17 130 45 86 -31 117 0
8 -51 102 101 -60 116 117 137 -141 0
117 -137 42 0
-50 -86 74 -146 -93 -113 -130 81 0
72 -109 141 63 -5 -54 0
99 142 119 0
-21 137 72 150 -124 0
-103 83 -9 63 18 41 120 -81 0
5 -23 -83 136 -27 108 120 72 0
91 -56 -15 129 25 -88 9 48 11 0
74 -42 121 4 113 111 0
102 -38 90 -143 84 -71 108 -1 -3 0
-93 7 -35 97 -30 148 0
16 -4 -68 144 63 0
-80 4 -122 0
144 -8 31 149 76 -67 0
-67 -105 47 51 110 111 59 -106 0
14 114 49 130 0
55 -69 147 93 102 137 87 -8 -142 0
25 9 45 13 49 99 11 64 103 111 0
-57 101 49 99 108 -140 -118 0
129 14 89 -116 0
68 73 78 141 42 -37 45 0
-68 24 74 120 70 81 -20 -66 -43 0
124 -118 -45 87 -137 0
57 136 -62 -104 -15 -4 126 64 -140 0
52 42 100 -143 -47 -111 99 0
-67 91 27 -47 -25 131 0
-36 -94 -25 -76 142 -87 -102 -61 0
-138 28 -17 -118 -14 12 8 147 23 0
3 55 1 -139 -9 -145 150 -114 66 0
-74 -7 -56 -134 -105 -49 0
-116 -53 146 4 0
31 -63 -72 0
4 143 -79 8 35 -45 -149 0
-52 -26 32 56 50 -11 0
-38 108 -103 -68 110 -18 32 85 113 -123 0
85 3 27 -97 147 0
-44 -93 -75 -94 136 4 -128 -12 0
87 128 -148 -121 68 0
-74 -39 41 -145 0
150 0
